Academic license - for non-commercial use only
Optimize a model with 1605 rows, 452 columns and 15178 nonzeros
Variable types: 3 continuous, 449 integer (448 binary)
Coefficient statistics:
  Matrix range     [1e+00, 2e+01]
  Objective range  [1e+00, 1e+00]
  Bounds range     [1e+00, 1e+00]
  RHS range        [1e+00, 1e+00]
Presolve removed 4 rows and 4 columns
Presolve time: 0.04s
Presolved: 1601 rows, 448 columns, 14848 nonzeros
Variable types: 0 continuous, 448 integer (448 binary)
Found heuristic solution: objective 183.0000000
Found heuristic solution: objective 158.0000000

Root relaxation: objective 5.409141e-01, 606 iterations, 0.03 seconds

    Nodes    |    Current Node    |     Objective Bounds      |     Work
 Expl Unexpl |  Obj  Depth IntInf | Incumbent    BestBd   Gap | It/Node Time

     0     0    0.54091    0  105  158.00000    0.54091   100%     -    0s
H    0     0                      37.0000000    0.54091  98.5%     -    0s
H    0     0                      22.0000000    0.54091  97.5%     -    0s
H    0     0                      15.0000000    0.54091  96.4%     -    0s
H    0     0                      14.0000000    0.54091  96.1%     -    0s
     0     0    0.71152    0  189   14.00000    0.71152  94.9%     -    0s
     0     0    0.72499    0  182   14.00000    0.72499  94.8%     -    0s
     0     0    0.89347    0  111   14.00000    0.89347  93.6%     -    0s
     0     0    0.96149    0  152   14.00000    0.96149  93.1%     -    0s
     0     0    0.97253    0  127   14.00000    0.97253  93.1%     -    0s
     0     0    0.99290    0  175   14.00000    0.99290  92.9%     -    0s
     0     0    0.99314    0  169   14.00000    0.99314  92.9%     -    0s
     0     0    1.01581    0  170   14.00000    1.01581  92.7%     -    0s
     0     0    1.02302    0  165   14.00000    1.02302  92.7%     -    0s
     0     0    1.03738    0  159   14.00000    1.03738  92.6%     -    1s
     0     0    1.04076    0  205   14.00000    1.04076  92.6%     -    1s
     0     0    1.04667    0  144   14.00000    1.04667  92.5%     -    1s
     0     0    1.04988    0  142   14.00000    1.04988  92.5%     -    1s
     0     0    1.07394    0  192   14.00000    1.07394  92.3%     -    1s
     0     0    1.07913    0  179   14.00000    1.07913  92.3%     -    1s
     0     0    1.08580    0  167   14.00000    1.08580  92.2%     -    1s
     0     0    1.09332    0  214   14.00000    1.09332  92.2%     -    1s
     0     0    1.09598    0  209   14.00000    1.09598  92.2%     -    1s
     0     0    1.09606    0  206   14.00000    1.09606  92.2%     -    1s
     0     0    1.10858    0  155   14.00000    1.10858  92.1%     -    1s
     0     0    1.11053    0  144   14.00000    1.11053  92.1%     -    1s
     0     0    1.11053    0  144   14.00000    1.11053  92.1%     -    1s
     0     0    1.12158    0  227   14.00000    1.12158  92.0%     -    1s
     0     0    1.12195    0  224   14.00000    1.12195  92.0%     -    1s
     0     0    1.12881    0  192   14.00000    1.12881  91.9%     -    1s
     0     0    1.12983    0  203   14.00000    1.12983  91.9%     -    2s
     0     0    1.13007    0  217   14.00000    1.13007  91.9%     -    2s
     0     0    1.13009    0  211   14.00000    1.13009  91.9%     -    2s
     0     0    1.14239    0  223   14.00000    1.14239  91.8%     -    2s
     0     0    1.14396    0  238   14.00000    1.14396  91.8%     -    2s
     0     0    1.14403    0  240   14.00000    1.14403  91.8%     -    2s
     0     0    1.14504    0  224   14.00000    1.14504  91.8%     -    2s
     0     0    1.14588    0  241   14.00000    1.14588  91.8%     -    2s
     0     0    1.14622    0  232   14.00000    1.14622  91.8%     -    2s
     0     0    1.14626    0  231   14.00000    1.14626  91.8%     -    2s
     0     0    1.15741    0  204   14.00000    1.15741  91.7%     -    2s
H    0     0                      13.0000000    1.15741  91.1%     -    2s
     0     0    1.15808    0  214   13.00000    1.15808  91.1%     -    2s
     0     0    1.15841    0  214   13.00000    1.15841  91.1%     -    2s
     0     0    1.15844    0  216   13.00000    1.15844  91.1%     -    2s
     0     0    1.19300    0  223   13.00000    1.19300  90.8%     -    2s
     0     0    1.19719    0  198   13.00000    1.19719  90.8%     -    2s
     0     0    1.19733    0  206   13.00000    1.19733  90.8%     -    2s
     0     0    1.20803    0  223   13.00000    1.20803  90.7%     -    2s
     0     0    1.20891    0  212   13.00000    1.20891  90.7%     -    2s
     0     0    1.20941    0  214   13.00000    1.20941  90.7%     -    3s
     0     0    1.21397    0  242   13.00000    1.21397  90.7%     -    3s
     0     0    1.21651    0  241   13.00000    1.21651  90.6%     -    3s
     0     0    1.22613    0  187   13.00000    1.22613  90.6%     -    3s
     0     0    1.23025    0  248   13.00000    1.23025  90.5%     -    3s
     0     0    1.23098    0  257   13.00000    1.23098  90.5%     -    3s
     0     0    1.23128    0  259   13.00000    1.23128  90.5%     -    3s
     0     0    1.23135    0  264   13.00000    1.23135  90.5%     -    3s
     0     0    1.24390    0  242   13.00000    1.24390  90.4%     -    3s
     0     0    1.24949    0  276   13.00000    1.24949  90.4%     -    3s
     0     0    1.24983    0  282   13.00000    1.24983  90.4%     -    3s
     0     0    1.24987    0  284   13.00000    1.24987  90.4%     -    3s
     0     0    1.25502    0  257   13.00000    1.25502  90.3%     -    3s
     0     0    1.25646    0  272   13.00000    1.25646  90.3%     -    3s
     0     0    1.25684    0  236   13.00000    1.25684  90.3%     -    3s
     0     0    1.25690    0  237   13.00000    1.25690  90.3%     -    4s
     0     0    1.27697    0  203   13.00000    1.27697  90.2%     -    4s
     0     0    1.28906    0  175   13.00000    1.28906  90.1%     -    4s
     0     0    1.29122    0  201   13.00000    1.29122  90.1%     -    4s
     0     0    1.29244    0  180   13.00000    1.29244  90.1%     -    4s
     0     0    1.29246    0  186   13.00000    1.29246  90.1%     -    4s
     0     0    1.30858    0  176   13.00000    1.30858  89.9%     -    4s
H    0     0                      12.0000000    1.30858  89.1%     -    4s
     0     0    1.31319    0  157   12.00000    1.31319  89.1%     -    4s
     0     0    1.32701    0  210   12.00000    1.32701  88.9%     -    4s
     0     0    1.35032    0  162   12.00000    1.35032  88.7%     -    4s
     0     0    1.35694    0  190   12.00000    1.35694  88.7%     -    4s
     0     0    1.35810    0  168   12.00000    1.35810  88.7%     -    4s
     0     0    1.35878    0  168   12.00000    1.35878  88.7%     -    4s
     0     0    1.35880    0  188   12.00000    1.35880  88.7%     -    4s
     0     0    1.38584    0  220   12.00000    1.38584  88.5%     -    5s
     0     0    1.39901    0  155   12.00000    1.39901  88.3%     -    5s
     0     0    1.39929    0  156   12.00000    1.39929  88.3%     -    5s
     0     0    1.41470    0  172   12.00000    1.41470  88.2%     -    5s
     0     0    1.41693    0  176   12.00000    1.41693  88.2%     -    5s
     0     0    1.41796    0  171   12.00000    1.41796  88.2%     -    5s
     0     0    1.41804    0  170   12.00000    1.41804  88.2%     -    5s
     0     0    1.45483    0  138   12.00000    1.45483  87.9%     -    5s
     0     0    1.45920    0  155   12.00000    1.45920  87.8%     -    5s
     0     0    1.45945    0  154   12.00000    1.45945  87.8%     -    5s
     0     0    1.48921    0  169   12.00000    1.48921  87.6%     -    5s
     0     0    1.49524    0  174   12.00000    1.49524  87.5%     -    5s
     0     0    1.50204    0  201   12.00000    1.50204  87.5%     -    5s
     0     0    1.50395    0  189   12.00000    1.50395  87.5%     -    6s
     0     0    1.50466    0  188   12.00000    1.50466  87.5%     -    6s
     0     0    1.50468    0  187   12.00000    1.50468  87.5%     -    6s
     0     0    1.51620    0  169   12.00000    1.51620  87.4%     -    6s
     0     0    1.52150    0  175   12.00000    1.52150  87.3%     -    6s
     0     0    1.52309    0  145   12.00000    1.52309  87.3%     -    6s
     0     0    1.52331    0  152   12.00000    1.52331  87.3%     -    6s
     0     0    1.53222    0  141   12.00000    1.53222  87.2%     -    6s
     0     0    1.53298    0  162   12.00000    1.53298  87.2%     -    6s
     0     0    1.53304    0  166   12.00000    1.53304  87.2%     -    6s
     0     0    1.54467    0  195   12.00000    1.54467  87.1%     -    6s
     0     0    1.55196    0  197   12.00000    1.55196  87.1%     -    6s
     0     0    1.55218    0  182   12.00000    1.55218  87.1%     -    6s
     0     0    1.55438    0  151   12.00000    1.55438  87.0%     -    6s
     0     0    1.55766    0  175   12.00000    1.55766  87.0%     -    6s
     0     0    1.55927    0  166   12.00000    1.55927  87.0%     -    6s
     0     0    1.56149    0  179   12.00000    1.56149  87.0%     -    6s
     0     0    1.56189    0  169   12.00000    1.56189  87.0%     -    6s
     0     0    1.56194    0  173   12.00000    1.56194  87.0%     -    6s
     0     0    1.56750    0  159   12.00000    1.56750  86.9%     -    7s
     0     0    1.56808    0  181   12.00000    1.56808  86.9%     -    7s
     0     0    1.56809    0  179   12.00000    1.56809  86.9%     -    7s
     0     0    1.57123    0  175   12.00000    1.57123  86.9%     -    7s
     0     0    1.57433    0  206   12.00000    1.57433  86.9%     -    7s
     0     0    1.57608    0  201   12.00000    1.57608  86.9%     -    7s
     0     0    1.57743    0  215   12.00000    1.57743  86.9%     -    7s
     0     0    1.57756    0  215   12.00000    1.57756  86.9%     -    7s
     0     0    2.09756    0  176   12.00000    2.09756  82.5%     -    7s
     0     0    2.09756    0  173   12.00000    2.09756  82.5%     -    7s
     0     2    2.09756    0  173   12.00000    2.09756  82.5%     -    7s
   106    60     cutoff   20        12.00000    2.09756  82.5%   429   10s
   658   157   10.38100   20  139   12.00000    3.00000  75.0%   254   15s
  1322   190    9.57042   17  186   12.00000    6.68168  44.3%   227   20s
  1897   158     cutoff    8        12.00000    7.48848  37.6%   216   25s

Cutting planes:
  Gomory: 3
  Cover: 195
  MIR: 13

Explored 2389 nodes (503463 simplex iterations) in 27.32 seconds
Thread count was 8 (of 8 available processors)

Solution count 8: 12 13 14 ... 183

Optimal solution found (tolerance 1.00e-04)
Best objective 1.200000000000e+01, best bound 1.200000000000e+01, gap 0.0000%
